c Output_time 26.03.2020 18:15:21_+0100 1585242921453822762
c ** Program information **
c program_name                          "QBRG_debug"
c version                               "0.3.20"
c date                                  "25.3.2020"
c gid_id                                "673970833836058123f633335630c185360d632e"
c author                                "Oliver Kullmann"
c url                                   "https://github.com/OKullmann/oklibrary/blob/master/Satisfiability/Transformers/Generators/Random/QBRG.cpp"
c ** Machine information **
c machine_name                          "chyna-Lenovo-G50-70"
c bogomips                              3791.08
c ** Compilation information **
c compiler_version                      "g++ 7.5.0"
c compilation_date                      "Mar_26_2020 11:16:30"
c compilation_options                   "--std=c++17 -pedantic -fmax-errors=5 -Wall -Wextra -g -D_GLIBCXX_DEBUG"
c NDEBUG                                0
c OPTIMIZE                              0
c ** Parameters **
c command-line                          "./QBRG_debug" "a40 e40 a40 40" "451*1,1|2-2,1|3-3,1|4-4,1" "" "1,t" ""
c output                                "QuBlRaGe_160_451_1585242921441955387.qdimacs"
c options                               "filtered,renamed"
c num_quantifier_blocks                 4
c  quantifier_blocks                    1:a1-40 2:e41-80 3:a81-120 4:e121-160
c num_clause-blocks                     1
c  clause-blocks                        451 * {1-40,1,1/2} | {41-80,1,1/2} | {81-120,1,1/2} | {121-160,1,1/2}
c num_e-seeds                           37+2=39
c  e-seeds                              1 0 1 0 5 160 2 40 0 40 1 40 0 40 1 451 4 1 1 1 1 2 2 2 1 1 2 3 3 1 1 2 4 4 1 1 2 1 1585242921441954564
p cnf 160 451
a 1 2 3 4 5 6 7 8 9 10 11 12 13 14 15 16 17 18 19 20 21 22 23 24 25 26 27 28 29 30 31 32 33 34 35 36 37 38 39 40 0
e 41 42 43 44 45 46 47 48 49 50 51 52 53 54 55 56 57 58 59 60 61 62 63 64 65 66 67 68 69 70 71 72 73 74 75 76 77 78 79 80 0
a 81 82 83 84 85 86 87 88 89 90 91 92 93 94 95 96 97 98 99 100 101 102 103 104 105 106 107 108 109 110 111 112 113 114 115 116 117 118 119 120 0
e 121 122 123 124 125 126 127 128 129 130 131 132 133 134 135 136 137 138 139 140 141 142 143 144 145 146 147 148 149 150 151 152 153 154 155 156 157 158 159 160 0
-34 62 -94 -121 0
-11 65 -95 -121 0
24 -53 97 -121 0
-33 51 98 -121 0
-33 72 100 -121 0
39 54 -104 -121 0
37 -63 -112 -121 0
1 78 117 -121 0
-24 45 118 -121 0
-12 -53 -81 121 0
-30 -46 -87 121 0
9 57 -88 121 0
-31 49 92 121 0
16 61 -99 121 0
23 -46 -100 121 0
-12 -41 102 121 0
7 65 108 121 0
22 68 117 121 0
10 -43 -118 121 0
-9 -41 90 -122 0
24 -56 94 -122 0
-6 70 -101 -122 0
-35 65 -106 -122 0
-21 -46 109 -122 0
-31 48 115 -122 0
30 -49 118 -122 0
39 65 -102 122 0
21 -78 116 122 0
-38 -50 -85 -123 0
-3 -55 85 -123 0
-7 -46 89 -123 0
-1 -70 -96 -123 0
22 -49 99 -123 0
24 -43 -101 -123 0
-10 -72 110 -123 0
-11 70 119 -123 0
-6 -63 -120 -123 0
-12 76 84 123 0
-5 -74 -101 123 0
-13 -43 -105 123 0
10 52 112 123 0
5 -72 -113 123 0
-28 -41 -90 -124 0
-39 -45 93 -124 0
-11 -76 96 -124 0
29 64 104 -124 0
12 -78 -105 -124 0
17 -57 106 -124 0
-13 78 -109 -124 0
-10 -78 -111 -124 0
8 61 98 124 0
-6 68 114 124 0
-30 -56 82 -125 0
-20 56 82 -125 0
-31 74 83 -125 0
25 -80 112 -125 0
19 -55 -116 -125 0
-9 53 -81 125 0
-4 78 -87 125 0
15 -61 -88 125 0
-3 57 90 125 0
-31 49 -107 125 0
-9 65 -83 -126 0
2 45 89 -126 0
35 -73 -95 -126 0
-16 42 -102 -126 0
-22 -77 90 126 0
-2 48 -96 126 0
-5 79 -99 126 0
38 -80 102 126 0
-2 -52 96 -127 0
-25 -55 98 -127 0
13 -46 99 -127 0
-5 -55 -102 -127 0
31 75 107 -127 0
-29 41 -115 -127 0
-26 -79 116 -127 0
6 78 -85 127 0
9 -65 104 127 0
1 74 -106 127 0
35 -51 106 127 0
4 44 118 127 0
-32 68 -88 -128 0
-20 71 88 -128 0
-24 79 91 -128 0
36 -71 95 -128 0
-39 75 98 -128 0
-31 64 -116 -128 0
23 53 116 -128 0
16 -67 84 128 0
-7 54 -88 128 0
-10 -45 89 -129 0
8 -53 102 -129 0
31 -57 -105 -129 0
35 -41 -108 -129 0
-37 61 -109 -129 0
-21 58 -84 129 0
-29 -72 -88 129 0
-34 74 90 129 0
-40 -57 -97 129 0
17 71 101 -130 0
-34 79 -119 -130 0
21 53 101 130 0
8 70 -104 130 0
17 -53 -113 130 0
7 -57 87 -131 0
-17 -68 89 -131 0
-9 49 99 -131 0
-26 64 -102 -131 0
26 -55 -104 -131 0
-16 75 -84 131 0
16 -63 97 131 0
3 51 99 131 0
-31 -72 104 131 0
-22 49 -105 131 0
11 -68 106 131 0
-1 -76 106 131 0
36 -49 81 -132 0
-24 -57 84 -132 0
-11 -71 87 -132 0
-36 -79 -88 -132 0
17 -45 93 -132 0
40 -52 103 -132 0
-40 -52 113 -132 0
-22 78 84 132 0
30 46 90 132 0
30 -59 -92 132 0
-3 -52 103 132 0
9 -55 106 132 0
-36 -56 106 132 0
38 58 -108 132 0
-16 68 109 132 0
-18 58 110 132 0
-22 79 -111 132 0
24 -50 -83 -133 0
-9 -45 84 -133 0
9 61 -91 -133 0
-21 -53 106 -133 0
-21 79 106 -133 0
-21 48 111 -133 0
25 -60 113 -133 0
-36 -73 115 -133 0
14 58 81 133 0
31 -54 -96 133 0
5 -58 -117 133 0
-18 60 -103 -134 0
39 79 107 -134 0
20 -79 -110 -134 0
21 -72 110 -134 0
-14 -58 111 -134 0
-27 75 -92 134 0
37 76 93 134 0
34 69 -114 134 0
-28 69 119 134 0
-29 54 -83 -135 0
37 -65 -88 -135 0
-36 -56 -93 -135 0
5 75 -95 -135 0
11 -68 96 -135 0
-4 66 112 -135 0
-2 80 -113 -135 0
-34 -46 -115 -135 0
33 72 83 135 0
10 73 -96 135 0
16 -68 103 135 0
-12 70 114 135 0
-3 -70 -104 -136 0
-40 -54 -115 -136 0
-9 53 -89 136 0
-26 -70 89 136 0
-34 44 91 136 0
-34 72 101 136 0
19 -58 103 136 0
17 -80 112 136 0
-35 -78 -116 136 0
-9 79 118 136 0
-11 -49 120 136 0
38 45 -81 -137 0
10 59 -82 -137 0
13 -79 87 -137 0
15 -67 -93 -137 0
-31 46 94 -137 0
-18 74 96 -137 0
24 -58 109 -137 0
5 61 -111 -137 0
25 57 112 -137 0
18 54 119 -137 0
36 -61 89 137 0
-8 -66 90 137 0
-34 41 92 137 0
16 -60 -93 137 0
-12 74 -94 137 0
6 -68 -115 137 0
-15 -61 120 137 0
22 -55 -102 -138 0
23 49 111 -138 0
-3 -75 120 -138 0
-26 69 93 138 0
38 79 105 138 0
15 -71 107 138 0
-27 -59 -82 -139 0
40 -76 -83 -139 0
8 79 85 -139 0
5 -71 90 -139 0
40 -49 91 -139 0
35 67 -93 -139 0
-28 76 101 -139 0
22 49 -104 -139 0
11 55 105 -139 0
-21 -68 -116 -139 0
-37 -79 -118 -139 0
10 54 94 139 0
29 -49 118 139 0
24 60 -85 -140 0
-16 -59 111 -140 0
-13 71 118 -140 0
-6 52 -93 140 0
8 -77 95 140 0
8 55 -97 140 0
8 -72 107 140 0
-2 51 -120 140 0
16 -64 -84 -141 0
-3 -65 -85 -141 0
-13 80 -85 -141 0
-20 -66 -90 -141 0
-6 -58 90 -141 0
-4 -76 -85 141 0
18 -52 -90 141 0
-21 76 -95 141 0
-4 -60 98 141 0
-15 47 100 141 0
-3 -51 103 141 0
6 -72 -85 -142 0
35 -77 87 -142 0
-20 -50 97 -142 0
-29 41 -81 142 0
5 63 90 142 0
-13 -77 -94 142 0
13 -61 -120 142 0
-28 53 -87 -143 0
9 -58 -89 -143 0
-31 54 -90 -143 0
8 -68 98 -143 0
-22 78 -101 -143 0
13 -58 107 -143 0
-19 67 110 -143 0
-5 -80 102 143 0
6 -64 103 143 0
14 -43 -105 143 0
-32 -47 -112 143 0
3 -76 -120 143 0
-35 65 82 -144 0
-8 53 -93 -144 0
29 66 -93 -144 0
-34 63 -99 -144 0
16 -42 105 -144 0
-12 77 -107 -144 0
-13 -71 112 -144 0
40 70 -84 144 0
26 -55 86 144 0
39 -49 -92 144 0
29 -70 -103 144 0
-20 43 104 144 0
1 45 -106 144 0
3 54 108 144 0
16 57 110 144 0
-27 44 116 144 0
9 -61 -85 -145 0
33 -45 88 -145 0
-11 -80 92 -145 0
-17 -48 115 -145 0
-14 75 116 -145 0
13 55 83 145 0
-28 -58 -84 145 0
-3 73 -85 145 0
21 -53 -87 145 0
14 -43 87 145 0
14 -79 89 145 0
31 -61 -107 145 0
31 -50 107 145 0
-14 -50 108 145 0
11 -41 111 145 0
-14 45 -117 145 0
32 -77 -83 -146 0
-13 -69 -94 -146 0
-15 -65 115 -146 0
-7 50 117 -146 0
37 -41 -98 146 0
16 -65 -105 146 0
-26 42 -82 -147 0
-15 -67 86 -147 0
-40 -75 119 -147 0
10 79 -120 -147 0
-6 59 82 147 0
29 -60 -85 147 0
10 -59 -106 147 0
-38 54 109 147 0
-1 66 -114 147 0
27 68 115 147 0
19 51 -117 147 0
3 -71 83 -148 0
30 49 -88 -148 0
4 -49 -98 -148 0
29 46 101 -148 0
2 -58 113 -148 0
26 -44 -82 148 0
31 41 85 148 0
-2 59 92 148 0
-22 -47 94 148 0
7 -43 -95 148 0
-4 58 -97 148 0
-38 66 -99 148 0
10 49 -113 148 0
-4 -72 84 -149 0
-22 -67 97 -149 0
16 -77 109 -149 0
39 59 -112 -149 0
22 -59 96 149 0
11 45 -109 149 0
18 -53 -111 149 0
-2 66 -111 149 0
-18 68 112 149 0
26 44 -97 -150 0
-14 51 -97 -150 0
12 80 97 -150 0
30 -60 118 -150 0
-7 -61 119 -150 0
-30 -45 82 150 0
11 -59 90 150 0
25 41 -91 150 0
31 56 83 -151 0
-6 41 89 -151 0
19 70 96 -151 0
-10 59 -105 -151 0
17 -68 -110 -151 0
10 65 111 -151 0
-10 59 -112 -151 0
4 64 -83 151 0
-13 47 -85 151 0
11 -47 -90 151 0
9 -60 90 151 0
8 -72 90 151 0
31 56 -104 151 0
-14 -56 112 151 0
-9 43 -85 -152 0
4 50 85 -152 0
-32 75 94 -152 0
17 -41 -111 -152 0
-21 64 -112 -152 0
-39 59 -114 -152 0
-22 -53 81 152 0
29 -47 92 152 0
37 63 -119 152 0
-22 -58 -93 -153 0
-40 -66 -103 -153 0
-29 -72 -105 -153 0
39 -63 114 -153 0
7 -49 87 153 0
-23 -69 -109 153 0
-40 43 113 153 0
30 -79 -115 153 0
24 -61 -118 153 0
-14 46 -81 -154 0
26 48 82 -154 0
4 77 101 -154 0
-39 -44 102 -154 0
-35 55 116 -154 0
11 -74 119 -154 0
-14 73 -90 154 0
-35 -50 -98 154 0
40 -80 -104 154 0
38 43 -106 154 0
26 -56 115 154 0
-34 76 -83 -155 0
-19 -44 92 -155 0
33 -53 -99 -155 0
31 45 99 -155 0
36 75 -109 -155 0
22 65 109 -155 0
33 75 -110 -155 0
17 -58 -111 -155 0
-35 62 89 155 0
-16 65 93 155 0
19 42 -108 155 0
23 -61 116 155 0
34 -53 -119 155 0
-23 -51 87 -156 0
-9 -62 89 -156 0
6 -57 -97 -156 0
-34 69 -98 -156 0
-19 -73 -98 -156 0
-28 -52 -111 -156 0
33 62 -86 156 0
2 -53 -98 156 0
23 -47 -116 156 0
19 45 -83 -157 0
2 77 85 -157 0
-9 -54 -87 -157 0
40 -63 89 -157 0
-21 -56 90 -157 0
22 49 -98 -157 0
-13 70 -109 -157 0
12 -60 -114 -157 0
-30 -64 120 -157 0
26 52 90 157 0
27 46 -92 157 0
11 -57 -102 157 0
-30 47 -106 157 0
-38 -63 -120 157 0
-3 59 81 -158 0
-12 46 87 -158 0
-2 -42 89 -158 0
-22 57 104 -158 0
-16 -68 -105 -158 0
-2 54 -107 -158 0
2 -44 114 -158 0
-37 -66 118 -158 0
-15 71 -84 158 0
-8 75 111 158 0
1 60 83 -159 0
-18 68 -88 -159 0
8 74 94 -159 0
24 53 -98 -159 0
-27 55 103 -159 0
-13 73 -105 -159 0
-3 -67 105 -159 0
9 -70 105 -159 0
38 -69 -107 -159 0
-33 74 -115 -159 0
-18 60 120 -159 0
-25 -79 82 159 0
-34 -63 -98 159 0
22 42 98 159 0
-17 -43 98 159 0
30 42 -103 159 0
-15 68 -106 159 0
-30 75 -107 159 0
-21 50 -112 159 0
-29 -68 -82 -160 0
-10 64 84 -160 0
-10 -56 91 -160 0
10 80 97 -160 0
11 45 -105 -160 0
-36 43 -106 -160 0
-12 -61 -86 160 0
-10 -47 94 160 0
-20 54 -102 160 0
16 78 106 160 0
5 -58 113 160 0
-2 42 -115 160 0
40 62 119 160 0
